language Essence 1.3

letting graph be
        function((1, 2) --> red, (1, 3) --> red, (1, 4) --> red, (1, 5) --> red, (1, 6) --> red, (2, 1) --> red,
                 (2, 3) --> blue, (2, 4) --> blue, (2, 5) --> blue, (2, 6) --> blue, (3, 1) --> red, (3, 2) --> blue,
                 (3, 4) --> blue, (3, 5) --> blue, (3, 6) --> blue, (4, 1) --> red, (4, 2) --> blue, (4, 3) --> blue,
                 (4, 5) --> blue, (4, 6) --> blue, (5, 1) --> red, (5, 2) --> blue, (5, 3) --> blue, (5, 4) --> blue,
                 (5, 6) --> blue, (6, 1) --> red, (6, 2) --> blue, (6, 3) --> blue, (6, 4) --> blue, (6, 5) --> blue)
